<number of tasks>
20

<cycle time>
1000

<order strength>
0,3


<task times>
1 571
2 247
3 482
4 481
5 510
6 565
7 327
8 262
9 722
10 461
11 555
12 519
13 595
14 545
15 442
16 535
17 441
18 571
19 593
20 482

<precedence relations>
1,14
2,14
3,14
4,5
4,6
4,7
4,8
4,9
6,10
6,11
8,12
8,13
10,14
11,15
14,16
14,17
14,18
14,19
14,20

<end>
